MARKOV
786
 2 2 2 2 2 2 2 2 2 2 2 2 2 2 2 2 2 2 2 2 2 2 2 2 2 2 2 2 2 2 2 2 2 2 2 2 2 2 2 2 2 2 2 2 2 2 2 2 2 2 2 2 2 2 2 2 2 2 2 2 2 2 2 2 2 2 2 2 2 2 2 2 2 2 2 2 2 2 2 2 2 2 2 2 2 2 2 2 2 2 2 2 2 2 2 2 2 2 2 2 2 2 2 2 2 2 2 2 2 2 2 2 2 2 2 2 2 2 2 2 2 2 2 2 2 2 2 2 2 2 2 2 2 2 2 2 2 2 2 2 2 2 2 2 2 2 2 2 2 2 2 2 2 2 2 2 2 2 2 2 2 2 2 2 2 2 2 2 2 2 2 2 2 2 2 2 2 2 2 2 2 2 2 2 2 2 2 2 2 2 2 2 2 2 2 2 2 2 2 2 2 2 2 2 2 2 2 2 2 2 2 2 2 2 2 2 2 2 2 2 2 2 2 2 2 2 2 2 2 2 2 2 2 2 2 2 2 2 2 2 2 2 2 2 2 2 2 2 2 2 2 2 2 2 2 2 2 2 2 2 2 2 2 2 2 2 2 2 2 2 2 2 2 2 2 2 2 2 2 2 2 2 2 2 2 2 2 2 2 2 2 2 2 2 2 2 2 2 2 2 2 2 2 2 2 2 2 2 2 2 2 2 2 2 2 2 2 2 2 2 2 2 2 2 2 2 2 2 2 2 2 2 2 2 2 2 2 2 2 2 2 2 2 2 2 2 2 2 2 2 2 2 2 2 2 2 2 2 2 2 2 2 2 2 2 2 2 2 2 2 2 2 2 2 2 2 2 2 2 2 2 2 2 2 2 2 2 2 2 2 2 2 2 2 2 2 2 2 2 2 2 2 2 2 2 2 2 2 2 2 2 2 2 2 2 2 2 2 2 2 2 2 2 2 2 2 2 2 2 2 2 2 2 2 2 2 2 2 2 2 2 2 2 2 2 2 2 2 2 2 2 2 2 2 2 2 2 2 2 2 2 2 2 2 2 2 2 2 2 2 2 2 2 2 2 2 2 2 2 2 2 2 2 2 2 2 2 2 2 2 2 2 2 2 2 2 2 2 2 2 2 2 2 2 2 2 2 2 2 2 2 2 2 2 2 2 2 2 2 2 2 2 2 2 2 2 2 2 2 2 2 2 2 2 2 2 2 2 2 2 2 2 2 2 2 2 2 2 2 2 2 2 2 2 2 2 2 2 2 2 2 2 2 2 2 2 2 2 2 2 2 2 2 2 2 2 2 2 2 2 2 2 2 2 2 2 2 2 2 2 2 2 2 2 2 2 2 2 2 2 2 2 2 2 2 2 2 2 2 2 2 2 2 2 2 2 2 2 2 2 2 2 2 2 2 2 2 2 2 2 2 2 2 2 2 2 2 2 2 2 2 2 2 2 2 2 2 2 2 2 2 2 2 2 2 2 2 2 2 2 2 2 2 2 2 2 2 2 2 2 2 2 2 2 2 2 2 2 2 2 2 2 2 2 2 2 2 2 2 2 2 2 2 2 2 2 2 2 2 2 2 2 2 2 2 2 2 2 2 2 2 2 2 2 2 2 2 2 2 2 2 2 2 2 2 2 2 2 2 2 2 2 2 2 2 2 2 2 2 2 2 2 2 2 2 2 2 2 2 2 2 2 2 2 2 2 2 2 2 2 2 2 2 2 2 2 2 2 2 2 2 2 2 2 2 2 2 2 2 2 2 2 2 2 2 2
795
3	38 84 785 
3	69 784 785 
3	263 783 784 
3	98 782 783 
3	3 781 782 
3	45 780 781 
3	279 779 780 
3	241 778 779 
3	129 777 778 
3	44 776 777 
3	247 775 776 
3	78 774 775 
3	275 773 774 
3	42 772 773 
3	113 771 772 
3	225 770 771 
3	91 769 770 
3	165 768 769 
3	159 767 768 
3	63 766 767 
3	197 765 766 
3	68 764 765 
3	36 763 764 
3	136 762 763 
3	223 761 762 
3	74 760 761 
3	85 759 760 
3	201 758 759 
3	226 757 758 
3	208 756 757 
3	56 755 756 
1	755 
3	86 211 754 
3	146 753 754 
3	153 752 753 
3	207 751 752 
3	121 750 751 
3	170 749 750 
3	133 748 749 
3	2 747 748 
3	274 746 747 
3	20 745 746 
3	147 744 745 
3	221 743 744 
3	88 742 743 
3	268 741 742 
3	93 740 741 
3	72 739 740 
3	166 738 739 
3	51 737 738 
3	229 736 737 
3	91 735 736 
3	254 734 735 
3	145 733 734 
3	73 732 733 
3	284 731 732 
3	85 730 731 
3	12 729 730 
3	30 728 729 
3	176 727 728 
3	111 726 727 
3	22 725 726 
3	19 724 725 
3	277 723 724 
3	156 722 723 
3	138 721 722 
3	205 720 721 
3	241 719 720 
3	39 718 719 
3	46 717 718 
3	32 716 717 
3	112 715 716 
3	96 714 715 
3	280 713 714 
3	37 712 713 
3	177 711 712 
3	6 710 711 
3	58 709 710 
3	137 708 709 
3	66 707 708 
3	291 706 707 
3	155 705 706 
3	154 704 705 
3	204 703 704 
3	41 702 703 
3	299 701 702 
3	199 700 701 
3	226 699 700 
3	103 698 699 
3	61 697 698 
3	79 696 697 
3	208 695 696 
3	31 694 695 
3	108 693 694 
1	693 
1	190 
3	142 231 692 
3	117 691 692 
3	0 690 691 
3	238 689 690 
3	200 688 689 
3	282 687 688 
3	10 686 687 
3	141 685 686 
3	209 684 685 
3	47 683 684 
3	300 682 683 
3	297 681 682 
3	285 680 681 
3	288 679 680 
3	101 678 679 
3	230 677 678 
3	189 676 677 
3	83 675 676 
3	12 674 675 
3	259 673 674 
3	228 672 673 
3	278 671 672 
3	17 670 671 
3	251 669 670 
3	217 668 669 
3	286 667 668 
3	162 666 667 
3	87 665 666 
3	181 664 665 
3	292 663 664 
3	253 662 663 
3	122 661 662 
3	249 660 661 
3	106 659 660 
3	11 658 659 
3	172 657 658 
3	203 656 657 
3	161 655 656 
3	178 654 655 
3	265 653 654 
3	271 652 653 
3	114 651 652 
3	160 650 651 
3	35 649 650 
3	237 648 649 
3	216 647 648 
3	175 646 647 
3	115 645 646 
3	227 644 645 
3	118 643 644 
3	24 642 643 
3	27 641 642 
3	109 640 641 
3	119 639 640 
3	281 638 639 
3	213 637 638 
3	180 636 637 
3	134 635 636 
3	196 634 635 
3	67 633 634 
3	294 632 633 
3	7 631 632 
3	260 630 631 
3	188 629 630 
3	210 628 629 
3	163 627 628 
3	179 626 627 
3	212 625 626 
3	296 624 625 
3	105 623 624 
3	156 622 623 
3	168 621 622 
3	71 620 621 
3	239 619 620 
3	234 618 619 
3	14 617 618 
3	8 616 617 
3	57 615 616 
3	131 614 615 
3	257 613 614 
3	126 612 613 
3	186 611 612 
3	185 610 611 
3	195 609 610 
3	65 608 609 
3	167 607 608 
1	607 
3	117 142 606 
3	238 605 606 
3	0 604 605 
3	200 603 604 
3	175 602 603 
3	227 601 602 
3	209 600 601 
3	125 599 600 
3	119 598 599 
3	109 597 598 
3	243 596 597 
3	52 595 596 
3	297 594 595 
3	281 593 594 
3	214 592 593 
3	29 591 592 
3	151 590 591 
3	262 589 590 
3	90 588 589 
3	285 587 588 
3	213 586 587 
3	180 585 586 
3	288 584 585 
3	102 583 584 
3	81 582 583 
3	101 581 582 
3	191 580 581 
3	174 579 580 
3	196 578 579 
3	67 577 578 
3	194 576 577 
3	188 575 576 
3	259 574 575 
3	212 573 574 
3	278 572 573 
3	99 571 572 
3	17 570 571 
3	251 569 570 
3	217 568 569 
3	127 567 568 
3	277 566 567 
3	162 565 566 
3	156 564 565 
3	253 563 564 
3	106 562 563 
3	239 561 562 
3	234 560 561 
3	14 559 560 
3	8 558 559 
3	5 557 558 
3	57 556 557 
3	97 555 556 
3	261 554 555 
3	164 553 554 
3	178 552 553 
3	293 551 552 
3	131 550 551 
3	265 549 550 
3	126 548 549 
3	185 547 548 
3	35 546 547 
3	195 545 546 
3	242 544 545 
3	167 543 544 
1	543 
3	0 117 542 
3	258 541 542 
3	298 540 541 
3	232 539 540 
3	115 538 539 
3	123 537 538 
3	40 536 537 
3	181 535 536 
3	118 534 535 
3	28 533 534 
3	270 532 533 
3	206 531 532 
3	49 530 531 
3	120 529 530 
3	202 528 529 
3	256 527 528 
3	248 526 527 
3	173 525 526 
3	116 524 525 
3	190 523 524 
3	294 522 523 
3	183 521 522 
3	244 520 521 
3	290 519 520 
3	114 518 519 
3	158 517 518 
1	517 
3	231 238 516 
3	75 515 516 
3	98 514 515 
3	267 513 514 
3	125 512 513 
3	47 511 512 
3	53 510 511 
3	297 509 510 
3	100 508 509 
3	285 507 508 
3	202 506 507 
3	169 505 506 
3	36 504 505 
3	150 503 504 
3	135 502 503 
3	26 501 502 
3	233 500 501 
3	259 499 500 
3	278 498 499 
3	251 497 498 
3	217 496 497 
3	162 495 496 
3	277 494 495 
3	263 493 494 
3	87 492 493 
3	272 491 492 
3	253 490 491 
3	104 489 490 
3	122 488 489 
3	107 487 488 
3	261 486 487 
3	97 485 486 
3	59 484 485 
3	16 483 484 
3	114 482 483 
3	160 481 482 
3	255 480 481 
3	115 479 480 
3	266 478 479 
3	219 477 478 
3	43 476 477 
3	80 475 476 
3	227 474 475 
3	118 473 474 
3	295 472 473 
3	94 471 472 
3	82 470 471 
3	243 469 470 
3	119 468 469 
3	54 467 468 
3	281 466 467 
3	151 465 466 
3	171 464 465 
3	273 463 464 
3	90 462 463 
3	91 461 462 
3	180 460 461 
3	81 459 460 
3	102 458 459 
3	13 457 458 
3	152 456 457 
3	68 455 456 
3	67 454 455 
3	287 453 454 
3	250 452 453 
3	244 451 452 
3	210 450 451 
3	23 449 450 
3	64 448 449 
3	4 447 448 
3	212 446 447 
3	62 445 446 
3	157 444 445 
3	77 443 444 
3	99 442 443 
3	218 441 442 
3	21 440 441 
3	105 439 440 
3	130 438 439 
3	247 437 438 
3	276 436 437 
3	234 435 436 
3	96 434 435 
3	8 433 434 
3	187 432 433 
3	70 431 432 
3	63 430 431 
3	184 429 430 
3	131 428 429 
3	126 427 428 
3	283 426 427 
3	110 425 426 
3	242 424 425 
3	208 423 424 
3	142 422 423 
3	148 421 422 
3	117 420 421 
3	60 419 420 
3	0 418 419 
3	200 417 418 
3	282 416 417 
3	69 415 416 
3	40 414 415 
3	209 413 414 
3	279 412 413 
3	52 411 412 
3	240 410 411 
3	289 409 410 
3	29 408 409 
3	262 407 408 
3	288 406 407 
3	182 405 406 
3	191 404 405 
3	101 403 404 
3	174 402 403 
3	230 401 402 
3	139 400 401 
3	264 399 400 
3	224 398 399 
3	269 397 398 
3	17 396 397 
3	76 395 396 
3	128 394 395 
3	292 393 394 
3	192 392 393 
3	34 391 392 
3	143 390 391 
3	249 389 390 
3	106 388 389 
3	172 387 388 
3	222 386 387 
3	203 385 386 
3	164 384 385 
3	161 383 384 
3	178 382 383 
3	140 381 382 
3	89 380 381 
3	293 379 380 
3	220 378 379 
3	265 377 378 
3	35 376 377 
3	237 375 376 
3	124 374 375 
3	252 373 374 
3	144 372 373 
3	175 371 372 
3	298 370 371 
3	235 369 370 
3	1 368 369 
3	24 367 368 
3	33 366 367 
3	27 365 366 
3	109 364 365 
3	214 363 364 
3	213 362 363 
3	18 361 362 
3	196 360 361 
3	294 359 360 
3	245 358 359 
3	194 357 358 
3	188 356 357 
3	163 355 356 
3	127 354 355 
3	296 353 354 
3	156 352 353 
3	92 351 352 
3	55 350 351 
3	50 349 350 
3	239 348 349 
3	15 347 348 
3	14 346 347 
3	5 345 346 
3	57 344 345 
3	25 343 344 
3	185 342 343 
3	195 341 342 
3	65 340 341 
3	167 339 340 
1	339 
3	149 298 338 
3	198 337 338 
3	69 336 337 
3	263 335 336 
3	98 334 335 
3	9 333 334 
3	3 332 333 
3	45 331 332 
3	279 330 331 
3	241 329 330 
3	44 328 329 
3	247 327 328 
3	236 326 327 
3	275 325 326 
3	42 324 325 
3	113 323 324 
3	225 322 323 
3	215 321 322 
3	246 320 321 
3	261 319 320 
3	145 318 319 
3	73 317 318 
3	159 316 317 
3	193 315 316 
3	63 314 315 
3	132 313 314 
3	197 312 313 
3	36 311 312 
3	136 310 311 
3	74 309 310 
3	223 308 309 
3	154 307 308 
3	48 306 307 
3	95 305 306 
3	85 304 305 
3	186 303 304 
3	226 302 303 
3	56 301 302 
1	301 
1	231 
1	86 
1	238 
1	123 
1	10 
1	170 
1	75 
1	98 
1	267 
1	47 
1	125 
1	20 
1	53 
1	113 
1	297 
1	221 
1	93 
1	100 
1	285 
1	202 
1	169 
1	256 
1	116 
1	36 
1	150 
1	135 
1	26 
1	259 
1	233 
1	228 
1	278 
1	251 
1	217 
1	38 
1	232 
1	162 
1	277 
1	138 
1	263 
1	87 
1	272 
1	253 
1	104 
1	39 
1	122 
1	32 
1	11 
1	58 
1	107 
1	137 
1	261 
1	97 
1	248 
1	173 
1	193 
1	59 
1	16 
1	291 
1	155 
1	290 
1	271 
1	226 
1	114 
1	103 
1	160 
1	255 
1	216 
1	115 
1	266 
1	219 
1	43 
1	80 
1	45 
1	118 
1	227 
1	295 
1	94 
1	129 
1	44 
1	274 
1	82 
1	119 
1	243 
1	88 
1	54 
1	268 
1	215 
1	225 
1	281 
1	151 
1	166 
1	171 
1	273 
1	90 
1	91 
1	180 
1	81 
1	102 
1	165 
1	145 
1	190 
1	13 
1	152 
1	132 
1	67 
1	68 
1	287 
1	183 
1	250 
1	48 
1	244 
1	85 
1	260 
1	7 
1	210 
1	30 
1	179 
1	23 
1	64 
1	4 
1	212 
1	56 
1	111 
1	62 
1	157 
1	77 
1	99 
1	218 
1	105 
1	21 
1	205 
1	130 
1	247 
1	46 
1	276 
1	270 
1	234 
1	96 
1	8 
1	187 
1	70 
1	63 
1	184 
1	131 
1	126 
1	283 
1	79 
1	61 
1	110 
1	242 
1	208 
1	31 
1	108 
1	142 
1	211 
1	117 
1	148 
1	0 
1	60 
1	200 
1	282 
1	146 
1	198 
1	69 
1	141 
1	40 
1	209 
1	279 
1	2 
1	300 
1	236 
1	42 
1	52 
1	240 
1	289 
1	29 
1	49 
1	229 
1	51 
1	262 
1	120 
1	288 
1	182 
1	101 
1	191 
1	73 
1	174 
1	230 
1	74 
1	189 
1	284 
1	83 
1	201 
1	12 
1	139 
1	264 
1	224 
1	22 
1	269 
1	17 
1	286 
1	76 
1	149 
1	181 
1	3 
1	128 
1	292 
1	192 
1	28 
1	34 
1	143 
1	249 
1	106 
1	112 
1	172 
1	206 
1	222 
1	37 
1	203 
1	6 
1	164 
1	161 
1	159 
1	197 
1	89 
1	140 
1	178 
1	293 
1	223 
1	154 
1	220 
1	95 
1	265 
1	204 
1	299 
1	35 
1	237 
1	124 
1	252 
1	84 
1	144 
1	175 
1	298 
1	207 
1	153 
1	235 
1	121 
1	1 
1	133 
1	24 
1	33 
1	27 
1	109 
1	147 
1	214 
1	72 
1	254 
1	213 
1	18 
1	134 
1	294 
1	196 
1	136 
1	245 
1	194 
1	188 
1	163 
1	176 
1	19 
1	258 
1	127 
1	296 
1	156 
1	168 
1	92 
1	9 
1	71 
1	55 
1	241 
1	78 
1	50 
1	275 
1	239 
1	15 
1	280 
1	14 
1	177 
1	5 
1	246 
1	57 
1	66 
1	257 
1	41 
1	25 
1	186 
1	199 
1	185 
1	195 
1	65 
1	158 
1	167 
0	

8
 1 0 0 1 0.01 0.99 0 1
8
 1 0 0 1 0.4 0 0.6 1
8
 1 0 0 1 0.5 0 0.5 1
8
 1 0 0 1 0.05 0 0.95 1
8
 1 0 0 1 0 0 1 1
8
 1 0 0 1 0.45 0 0.55 1
8
 1 0 0 1 0.05 0 0.95 1
8
 1 0 0 1 0.05 0 0.95 1
8
 1 0 0 1 0.01 0 0.99 1
8
 1 0 0 1 0 0 1 1
8
 1 0 0 1 0.4 0 0.6 1
8
 1 0 0 1 0 0 1 1
8
 1 0 0 1 0.05 0 0.95 1
8
 1 0 0 1 0.9 0 0.1 1
8
 1 0 0 1 0.5 0 0.5 1
8
 1 0 0 1 0.4 0 0.6 1
8
 1 0 0 1 0.66 0 0.34 1
8
 1 0 0 1 0 0 1 1
8
 1 0 0 1 0.05 0 0.95 1
8
 1 0 0 1 0.4 0 0.6 1
8
 1 0 0 1 0.05 0 0.95 1
8
 1 0 0 1 0.6 0 0.4 1
8
 1 0 0 1 0.05 0 0.95 1
8
 1 0 0 1 0.05 0 0.95 1
8
 1 0 0 1 0.5 0 0.5 1
8
 1 0 0 1 0.5 0 0.5 1
8
 1 0 0 1 0.5 0 0.5 1
8
 1 0 0 1 0.2 0 0.8 1
8
 1 0 0 1 0.05 0 0.95 1
8
 1 0 0 1 0.5 0 0.5 1
8
 1 0 0 1 0.5 0 0.5 1
2
 0.03 1
8
 1 0 0.89 0.11 0.5 0.5 0.445 0.555
8
 1 0 0 1 0.89 0 0.11 1
8
 1 0 0 1 0 0 1 1
8
 1 0 0 1 0.5 0 0.5 1
8
 1 0 0 1 0.5 0 0.5 1
8
 1 0 0 1 0.5 0 0.5 1
8
 1 0 0 1 0.4 0 0.6 1
8
 1 0 0 1 0.1 0 0.9 1
8
 1 0 0 1 0.5 0 0.5 1
8
 1 0 0 1 0.01 0 0.99 1
8
 1 0 0 1 0.5 0 0.5 1
8
 1 0 0 1 0.9 0 0.1 1
8
 1 0 0 1 0.01 0 0.99 1
8
 1 0 0 1 0.1 0 0.9 1
8
 1 0 0 1 0.01 0 0.99 1
8
 1 0 0 1 0.89 0 0.11 1
8
 1 0 0 1 0.5 0 0.5 1
8
 1 0 0 1 0.5 0 0.5 1
8
 1 0 0 1 0.4 0 0.6 1
8
 1 0 0 1 0.63 0 0.37 1
8
 1 0 0 1 0.8 0 0.2 1
8
 1 0 0 1 0.89 0 0.11 1
8
 1 0 0 1 0.89 0 0.11 1
8
 1 0 0 1 0.01 0 0.99 1
8
 1 0 0 1 0.5 0 0.5 1
8
 1 0 0 1 0.95 0 0.05 1
8
 1 0 0 1 0.89 0 0.11 1
8
 1 0 0 1 0.5 0 0.5 1
8
 1 0 0 1 0.5 0 0.5 1
8
 1 0 0 1 0.7 0 0.3 1
8
 1 0 0 1 0.5 0 0.5 1
8
 1 0 0 1 0.2 0 0.8 1
8
 1 0 0 1 0.89 0 0.11 1
8
 1 0 0 1 0.5 0 0.5 1
8
 1 0 0 1 0.89 0 0.11 1
8
 1 0 0 1 0.09 0 0.91 1
8
 1 0 0 1 0.09 0 0.91 1
8
 1 0 0 1 0.5 0 0.5 1
8
 1 0 0 1 0.89 0 0.11 1
8
 1 0 0 1 0.9 0 0.1 1
8
 1 0 0 1 0.5 0 0.5 1
8
 1 0 0 1 0.5 0 0.5 1
8
 1 0 0 1 0.89 0 0.11 1
8
 1 0 0 1 0.5 0 0.5 1
8
 1 0 0 1 0.5 0 0.5 1
8
 1 0 0 1 0.89 0 0.11 1
8
 1 0 0 1 0.5 0 0.5 1
8
 1 0 0 1 0.89 0 0.11 1
8
 1 0 0 1 0.5 0 0.5 1
8
 1 0 0 1 0.5 0 0.5 1
8
 1 0 0 1 0.5 0 0.5 1
8
 1 0 0 1 0 0 1 1
8
 1 0 0 1 0.1 0 0.9 1
8
 1 0 0 1 0.5 0 0.5 1
8
 1 0 0 1 0.5 0 0.5 1
8
 1 0 0 1 0.89 0 0.11 1
8
 1 0 0 1 0.89 0 0.11 1
8
 1 0 0 1 0.2 0 0.8 1
8
 1 0 0 1 0.4 0 0.6 1
8
 1 0 0 1 0.4 0 0.6 1
8
 1 0 0 1 0.89 0 0.11 1
8
 1 0 0 1 0.01 0 0.99 1
2
 0.03 1
2
 0 0.8
8
 1 0 0.9 0.1 0.05 0.95 0.045 0.955
8
 1 0 0 1 0.9 0 0.1 1
8
 1 0 0 1 0.05 0 0.95 1
8
 1 0 0 1 0.05 0 0.95 1
8
 1 0 0 1 0.05 0 0.95 1
8
 1 0 0 1 0.9 0 0.1 1
8
 1 0 0 1 0.3 0 0.7 1
8
 1 0 0 1 0.3 0 0.7 1
8
 1 0 0 1 0.1 0 0.9 1
8
 1 0 0 1 0.9 0 0.1 1
8
 1 0 0 1 0.3 0 0.7 1
8
 1 0 0 1 0.05 0 0.95 1
8
 1 0 0 1 0.05 0 0.95 1
8
 1 0 0 1 0.05 0 0.95 1
8
 1 0 0 1 0.05 0 0.95 1
8
 1 0 0 1 0.5 0 0.5 1
8
 1 0 0 1 0.3 0 0.7 1
8
 1 0 0 1 0.5 0 0.5 1
8
 1 0 0 1 0.9 0 0.1 1
8
 1 0 0 1 0.05 0 0.95 1
8
 1 0 0 1 0.3 0 0.7 1
8
 1 0 0 1 0.05 0 0.95 1
8
 1 0 0 1 0.05 0 0.95 1
8
 1 0 0 1 0.05 0 0.95 1
8
 1 0 0 1 0.05 0 0.95 1
8
 1 0 0 1 0.5 0 0.5 1
8
 1 0 0 1 0.4 0 0.6 1
8
 1 0 0 1 0.9 0 0.1 1
8
 1 0 0 1 0.5 0 0.5 1
8
 1 0 0 1 0.7 0 0.3 1
8
 1 0 0 1 0.01 0 0.99 1
8
 1 0 0 1 0.9 0 0.1 1
8
 1 0 0 1 0.9 0 0.1 1
8
 1 0 0 1 0.05 0 0.95 1
8
 1 0 0 1 0.4 0 0.6 1
8
 1 0 0 1 0.9 0 0.1 1
8
 1 0 0 1 0.9 0 0.1 1
8
 1 0 0 1 0.75 0 0.25 1
8
 1 0 0 1 0.05 0 0.95 1
8
 1 0 0 1 0.05 0 0.95 1
8
 1 0 0 1 0.3 0 0.7 1
8
 1 0 0 1 0.9 0 0.1 1
8
 1 0 0 1 0.5 0 0.5 1
8
 1 0 0 1 0.5 0 0.5 1
8
 1 0 0 1 0.9 0 0.1 1
8
 1 0 0 1 0.3 0 0.7 1
8
 1 0 0 1 0.05 0 0.95 1
8
 1 0 0 1 0.9 0 0.1 1
8
 1 0 0 1 0.5 0 0.5 1
8
 1 0 0 1 0.9 0 0.1 1
8
 1 0 0 1 0.9 0 0.1 1
8
 1 0 0 1 0.9 0 0.1 1
8
 1 0 0 1 0.05 0 0.95 1
8
 1 0 0 1 0.05 0 0.95 1
8
 1 0 0 1 0.05 0 0.95 1
8
 1 0 0 1 0.05 0 0.95 1
8
 1 0 0 1 0.05 0 0.95 1
8
 1 0 0 1 0.3 0 0.7 1
8
 1 0 0 1 0.05 0 0.95 1
8
 1 0 0 1 0.05 0 0.95 1
8
 1 0 0 1 0.9 0 0.1 1
8
 1 0 0 1 0.3 0 0.7 1
8
 1 0 0 1 0.5 0 0.5 1
8
 1 0 0 1 0.05 0 0.95 1
8
 1 0 0 1 0.1 0 0.9 1
8
 1 0 0 1 0.9 0 0.1 1
8
 1 0 0 1 0.89 0 0.11 1
8
 1 0 0 1 0.05 0 0.95 1
8
 1 0 0 1 0.9 0 0.1 1
8
 1 0 0 1 0.89 0 0.11 1
8
 1 0 0 1 0.05 0 0.95 1
8
 1 0 0 1 0.5 0 0.5 1
8
 1 0 0 1 0.09 0 0.91 1
8
 1 0 0 1 0.05 0 0.95 1
8
 1 0 0 1 0.02 0 0.98 1
8
 1 0 0 1 0.05 0 0.95 1
8
 1 0 0 1 0.2 0 0.8 1
8
 1 0 0 1 0.05 0 0.95 1
8
 1 0 0 1 0.05 0 0.95 1
8
 1 0 0 1 0.3 0 0.7 1
8
 1 0 0 1 0.05 0 0.95 1
8
 1 0 0 1 0.4 0 0.6 1
8
 1 0 0 1 0.05 0 0.95 1
8
 1 0 0 1 0.05 0 0.95 1
8
 1 0 0 1 0.9 0 0.1 1
8
 1 0 0 1 0.05 0 0.95 1
2
 0.03 1
8
 1 0 0 1 0 1 0 1
8
 1 0 0 1 0 0 1 1
8
 1 0 0 1 0 0 1 1
8
 1 0 0 1 0 0 1 1
8
 1 0 0 1 0 0 1 1
8
 1 0 0 1 0 0 1 1
8
 1 0 0 1 0 0 1 1
8
 1 0 0 1 0 0 1 1
8
 1 0 0 1 0 0 1 1
8
 1 0 0 1 0 0 1 1
8
 1 0 0 1 0 0 1 1
8
 1 0 0 1 0 0 1 1
8
 1 0 0 1 0 0 1 1
8
 1 0 0 1 0 0 1 1
8
 1 0 0 1 0 0 1 1
8
 1 0 0 1 0 0 1 1
8
 1 0 0 1 0 0 1 1
8
 1 0 0 1 0 0 1 1
8
 1 0 0 1 0 0 1 1
8
 1 0 0 1 0 0 1 1
8
 1 0 0 1 0 0 1 1
8
 1 0 0 1 0 0 1 1
8
 1 0 0 1 0 0 1 1
8
 1 0 0 1 0 0 1 1
8
 1 0 0 1 0 0 1 1
8
 1 0 0 1 0 0 1 1
8
 1 0 0 1 0 0 1 1
8
 1 0 0 1 0 0 1 1
8
 1 0 0 1 0 0 1 1
8
 1 0 0 1 0 0 1 1
8
 1 0 0 1 0 0 1 1
8
 1 0 0 1 0 0 1 1
8
 1 0 0 1 0 0 1 1
8
 1 0 0 1 0 0 1 1
8
 1 0 0 1 0 0 1 1
8
 1 0 0 1 0 0 1 1
8
 1 0 0 1 0 0 1 1
8
 1 0 0 1 0 0 1 1
8
 1 0 0 1 0 0 1 1
8
 1 0 0 1 0 0 1 1
8
 1 0 0 1 0 0 1 1
8
 1 0 0 1 0 0 1 1
8
 1 0 0 1 0 0 1 1
8
 1 0 0 1 0 0 1 1
8
 1 0 0 1 0 0 1 1
8
 1 0 0 1 0 0 1 1
8
 1 0 0 1 0 0 1 1
8
 1 0 0 1 0 0 1 1
8
 1 0 0 1 0 0 1 1
8
 1 0 0 1 0 0 1 1
8
 1 0 0 1 0 0 1 1
8
 1 0 0 1 0 0 1 1
8
 1 0 0 1 0 0 1 1
8
 1 0 0 1 0 0 1 1
8
 1 0 0 1 0 0 1 1
8
 1 0 0 1 0 0 1 1
8
 1 0 0 1 0 0 1 1
8
 1 0 0 1 0 0 1 1
8
 1 0 0 1 0 0 1 1
8
 1 0 0 1 0 0 1 1
8
 1 0 0 1 0 0 1 1
8
 1 0 0 1 0 0 1 1
8
 1 0 0 1 0 0 1 1
8
 1 0 0 1 0 0 1 1
2
 0.03 1
8
 1 0 0.4 0.6 0.6 0.4 0.24 0.76
8
 1 0 0 1 0.02 0 0.98 1
8
 1 0 0 1 0.6 0 0.4 1
8
 1 0 0 1 0 0 1 1
8
 1 0 0 1 0.4 0 0.6 1
8
 1 0 0 1 0.5 0 0.5 1
8
 1 0 0 1 0.5 0 0.5 1
8
 1 0 0 1 0.89 0 0.11 1
8
 1 0 0 1 0.4 0 0.6 1
8
 1 0 0 1 0.4 0 0.6 1
8
 1 0 0 1 0.02 0 0.98 1
8
 1 0 0 1 0.4 0 0.6 1
8
 1 0 0 1 0.4 0 0.6 1
8
 1 0 0 1 0.4 0 0.6 1
8
 1 0 0 1 0.89 0 0.11 1
8
 1 0 0 1 0.1 0 0.9 1
8
 1 0 0 1 0.05 0 0.95 1
8
 1 0 0 1 0.02 0 0.98 1
8
 1 0 0 1 0.4 0 0.6 1
8
 1 0 0 1 0.01 0 0.99 1
8
 1 0 0 1 0.4 0 0.6 1
8
 1 0 0 1 0 0 1 1
8
 1 0 0 1 0.4 0 0.6 1
8
 1 0 0 1 0.05 0 0.95 1
8
 1 0 0 1 0.4 0 0.6 1
8
 1 0 0 1 0.1 0 0.9 1
2
 0.03 1
8
 1 0 0 1 0.9 0.1 0 1
8
 1 0 0 1 0.2 0 0.8 1
8
 1 0 0 1 0.4 0 0.6 1
8
 1 0 0 1 0.5 0 0.5 1
8
 1 0 0 1 0 0 1 1
8
 1 0 0 1 0.9 0 0.1 1
8
 1 0 0 1 0.5 0 0.5 1
8
 1 0 0 1 0.89 0 0.11 1
8
 1 0 0 1 0.5 0 0.5 1
8
 1 0 0 1 0 0 1 1
8
 1 0 0 1 0.89 0 0.11 1
8
 1 0 0 1 0.5 0 0.5 1
8
 1 0 0 1 0.4 0 0.6 1
8
 1 0 0 1 0.1 0 0.9 1
8
 1 0 0 1 0.5 0 0.5 1
8
 1 0 0 1 0.5 0 0.5 1
8
 1 0 0 1 0.1 0 0.9 1
8
 1 0 0 1 0 0 1 1
8
 1 0 0 1 0.5 0 0.5 1
8
 1 0 0 1 0.01 0 0.99 1
8
 1 0 0 1 0 0 1 1
8
 1 0 0 1 0 0 1 1
8
 1 0 0 1 0 0 1 1
8
 1 0 0 1 0.5 0 0.5 1
8
 1 0 0 1 0.9 0 0.1 1
8
 1 0 0 1 0.5 0 0.5 1
8
 1 0 0 1 0 0 1 1
8
 1 0 0 1 0.5 0 0.5 1
8
 1 0 0 1 0.9 0 0.1 1
8
 1 0 0 1 0.5 0 0.5 1
8
 1 0 0 1 0.1 0 0.9 1
8
 1 0 0 1 0 0 1 1
8
 1 0 0 1 0.1 0 0.9 1
8
 1 0 0 1 0.5 0 0.5 1
8
 1 0 0 1 0.9 0 0.1 1
8
 1 0 0 1 0.5 0 0.5 1
8
 1 0 0 1 0.5 0 0.5 1
8
 1 0 0 1 0.9 0 0.1 1
8
 1 0 0 1 0.09 0 0.91 1
8
 1 0 0 1 0.5 0 0.5 1
8
 1 0 0 1 0.1 0 0.9 1
8
 1 0 0 1 0.5 0 0.5 1
8
 1 0 0 1 0.5 0 0.5 1
8
 1 0 0 1 0.9 0 0.1 1
8
 1 0 0 1 0.09 0 0.91 1
8
 1 0 0 1 0.5 0 0.5 1
8
 1 0 0 1 0.5 0 0.5 1
8
 1 0 0 1 0 0 1 1
8
 1 0 0 1 0 0 1 1
8
 1 0 0 1 0.5 0 0.5 1
8
 1 0 0 1 0 0 1 1
8
 1 0 0 1 0 0 1 1
8
 1 0 0 1 0.5 0 0.5 1
8
 1 0 0 1 0.1 0 0.9 1
8
 1 0 0 1 0.5 0 0.5 1
8
 1 0 0 1 0.57 0 0.43 1
8
 1 0 0 1 0 0 1 1
8
 1 0 0 1 0 0 1 1
8
 1 0 0 1 0 0 1 1
8
 1 0 0 1 0.5 0 0.5 1
8
 1 0 0 1 0.5 0 0.5 1
8
 1 0 0 1 0.9 0 0.1 1
8
 1 0 0 1 0 0 1 1
8
 1 0 0 1 0.5 0 0.5 1
8
 1 0 0 1 0.1 0 0.9 1
8
 1 0 0 1 0.5 0 0.5 1
8
 1 0 0 1 0.1 0 0.9 1
8
 1 0 0 1 0.5 0 0.5 1
8
 1 0 0 1 0.4 0 0.6 1
8
 1 0 0 1 0.5 0 0.5 1
8
 1 0 0 1 0 0 1 1
8
 1 0 0 1 0.5 0 0.5 1
8
 1 0 0 1 0.9 0 0.1 1
8
 1 0 0 1 0.5 0 0.5 1
8
 1 0 0 1 0 0 1 1
8
 1 0 0 1 0.89 0 0.11 1
8
 1 0 0 1 0.5 0 0.5 1
8
 1 0 0 1 0.5 0 0.5 1
8
 1 0 0 1 0.5 0 0.5 1
8
 1 0 0 1 0.4 0 0.6 1
8
 1 0 0 1 0.5 0 0.5 1
8
 1 0 0 1 0 0 1 1
8
 1 0 0 1 0.1 0 0.9 1
8
 1 0 0 1 0.6 0 0.4 1
8
 1 0 0 1 0.5 0 0.5 1
8
 1 0 0 1 0.1 0 0.9 1
8
 1 0 0 1 0.4 0 0.6 1
8
 1 0 0 1 0.5 0 0.5 1
8
 1 0 0 1 0 0 1 1
8
 1 0 0 1 0 0 1 1
8
 1 0 0 1 0.1 0 0.9 1
8
 1 0 0 1 0.59 0 0.41 1
8
 1 0 0 1 0 0 1 1
8
 1 0 0 1 0.4 0 0.6 1
8
 1 0 0 1 0 0 1 1
8
 1 0 0 1 0.5 0 0.5 1
8
 1 0 0 1 0.9 0 0.1 1
8
 1 0 0 1 0.5 0 0.5 1
8
 1 0 0 1 0 0 1 1
8
 1 0 0 1 0 0 1 1
8
 1 0 0 1 0.9 0 0.1 1
8
 1 0 0 1 0.4 0 0.6 1
8
 1 0 0 1 0.5 0 0.5 1
8
 1 0 0 1 0.1 0 0.9 1
8
 1 0 0 1 0.4 0 0.6 1
8
 1 0 0 1 0 0 1 1
8
 1 0 0 1 0.5 0 0.5 1
8
 1 0 0 1 0.09 0 0.91 1
8
 1 0 0 1 0 0 1 1
8
 1 0 0 1 0 0 1 1
8
 1 0 0 1 0 0 1 1
8
 1 0 0 1 0.89 0 0.11 1
8
 1 0 0 1 0 0 1 1
8
 1 0 0 1 0 0 1 1
8
 1 0 0 1 0 0 1 1
8
 1 0 0 1 0.5 0 0.5 1
8
 1 0 0 1 0.5 0 0.5 1
8
 1 0 0 1 0.5 0 0.5 1
8
 1 0 0 1 0.5 0 0.5 1
8
 1 0 0 1 0.5 0 0.5 1
8
 1 0 0 1 0 0 1 1
8
 1 0 0 1 0.5 0 0.5 1
8
 1 0 0 1 0.4 0 0.6 1
8
 1 0 0 1 0.7 0 0.3 1
8
 1 0 0 1 0.5 0 0.5 1
8
 1 0 0 1 0.89 0 0.11 1
8
 1 0 0 1 0.5 0 0.5 1
8
 1 0 0 1 0.9 0 0.1 1
8
 1 0 0 1 0 0 1 1
8
 1 0 0 1 0.9 0 0.1 1
8
 1 0 0 1 0.5 0 0.5 1
8
 1 0 0 1 0.5 0 0.5 1
8
 1 0 0 1 0 0 1 1
8
 1 0 0 1 0.75 0 0.25 1
8
 1 0 0 1 0 0 1 1
8
 1 0 0 1 0.09 0 0.91 1
8
 1 0 0 1 0.5 0 0.5 1
8
 1 0 0 1 0 0 1 1
8
 1 0 0 1 0.5 0 0.5 1
8
 1 0 0 1 0 0 1 1
8
 1 0 0 1 0 0 1 1
8
 1 0 0 1 0.9 0 0.1 1
8
 1 0 0 1 0.7 0 0.3 1
8
 1 0 0 1 0.4 0 0.6 1
8
 1 0 0 1 0.1 0 0.9 1
8
 1 0 0 1 0 0 1 1
8
 1 0 0 1 0.6 0 0.4 1
8
 1 0 0 1 0.5 0 0.5 1
8
 1 0 0 1 0.4 0 0.6 1
8
 1 0 0 1 0.9 0 0.1 1
8
 1 0 0 1 0.5 0 0.5 1
8
 1 0 0 1 0.9 0 0.1 1
8
 1 0 0 1 0 0 1 1
8
 1 0 0 1 0 0 1 1
8
 1 0 0 1 0 0 1 1
8
 1 0 0 1 0.09 0 0.91 1
8
 1 0 0 1 0 0 1 1
8
 1 0 0 1 0.9 0 0.1 1
8
 1 0 0 1 0.5 0 0.5 1
8
 1 0 0 1 0 0 1 1
8
 1 0 0 1 0 0 1 1
8
 1 0 0 1 0.9 0 0.1 1
8
 1 0 0 1 0 0 1 1
8
 1 0 0 1 0.9 0 0.1 1
8
 1 0 0 1 0 0 1 1
8
 1 0 0 1 0.05 0 0.95 1
8
 1 0 0 1 0.5 0 0.5 1
8
 1 0 0 1 0.5 0 0.5 1
8
 1 0 0 1 0 0 1 1
8
 1 0 0 1 0.5 0 0.5 1
8
 1 0 0 1 0 0 1 1
8
 1 0 0 1 0.1 0 0.9 1
8
 1 0 0 1 0 0 1 1
8
 1 0 0 1 0.5 0 0.5 1
8
 1 0 0 1 0 0 1 1
8
 1 0 0 1 0 0 1 1
8
 1 0 0 1 0.9 0 0.1 1
8
 1 0 0 1 0.01 0 0.99 1
2
 0.03 1
8
 1 0 0.1 0.9 0.5 0.5 0.05 0.95
8
 1 0 0 1 0.89 0 0.11 1
8
 1 0 0 1 0.05 0 0.95 1
8
 1 0 0 1 0.5 0 0.5 1
8
 1 0 0 1 0.05 0 0.95 1
8
 1 0 0 1 0.89 0 0.11 1
8
 1 0 0 1 0.01 0 0.99 1
8
 1 0 0 1 0.45 0 0.55 1
8
 1 0 0 1 0.05 0 0.95 1
8
 1 0 0 1 0.05 0 0.95 1
8
 1 0 0 1 0 0 1 1
8
 1 0 0 1 0.05 0 0.95 1
8
 1 0 0 1 0.89 0 0.11 1
8
 1 0 0 1 0.05 0 0.95 1
8
 1 0 0 1 0.8 0 0.2 1
8
 1 0 0 1 0.01 0 0.99 1
8
 1 0 0 1 0.4 0 0.6 1
8
 1 0 0 1 0.5 0 0.5 1
8
 1 0 0 1 0.5 0 0.5 1
8
 1 0 0 1 0.5 0 0.5 1
8
 1 0 0 1 0.89 0 0.11 1
8
 1 0 0 1 0.89 0 0.11 1
8
 1 0 0 1 0.05 0 0.95 1
8
 1 0 0 1 0.1 0 0.9 1
8
 1 0 0 1 0.5 0 0.5 1
8
 1 0 0 1 0.89 0 0.11 1
8
 1 0 0 1 0.05 0 0.95 1
8
 1 0 0 1 0.05 0 0.95 1
8
 1 0 0 1 0.05 0 0.95 1
8
 1 0 0 1 0.05 0 0.95 1
8
 1 0 0 1 0.01 0 0.99 1
8
 1 0 0 1 0.5 0 0.5 1
8
 1 0 0 1 0.9 0 0.1 1
8
 1 0 0 1 0.89 0 0.11 1
8
 1 0 0 1 0.5 0 0.5 1
8
 1 0 0 1 0.4 0 0.6 1
8
 1 0 0 1 0.05 0 0.95 1
8
 1 0 0 1 0 0 1 1
2
 0.03 1
2
 0.9995 0.0005
2
 0.9999 0.0001
2
 0.99995 5e-05
2
 0.9999 0.0001
2
 0.9992 0.0008
2
 0.99998 2e-05
2
 0.99999 1e-05
2
 0.9999 0.0001
2
 0.99999 1e-05
2
 0.99975 0.00025
2
 0.999 0.001
2
 0.99999 1e-05
2
 0.99999 1e-05
2
 0.999999 1e-06
2
 0.99995 5e-05
2
 0.99989 0.00011
2
 0.99999 1e-05
2
 0.99999 1e-05
2
 0.9999 0.0001
2
 0.9999 0.0001
2
 0.99975 0.00025
2
 0.9995 0.0005
2
 0.9999 0.0001
2
 0.9999 0.0001
2
 0.999999 1e-06
2
 0.99989 0.00011
2
 0.9999 0.0001
2
 0.9999 0.0001
2
 0.9999 0.0001
2
 0.9999 0.0001
2
 0.99998 2e-05
2
 0.99999 1e-05
2
 0.9999 0.0001
2
 0.99999 1e-05
2
 0.99995 5e-05
2
 0.99995 5e-05
2
 0.998 0.002
2
 0.99991 9e-05
2
 0.99974 0.00026
2
 0.999998 2e-06
2
 0.99989 0.00011
2
 0.99995 5e-05
2
 0.9999 0.0001
2
 0.9995 0.0005
2
 0.99996 4e-05
2
 0.9999 0.0001
2
 0.99946 0.00054
2
 0.9999 0.0001
2
 0.99981 0.00019
2
 0.9999 0.0001
2
 0.9999 0.0001
2
 0.99998 2e-05
2
 0.9998 0.0002
2
 0.999998 2e-06
2
 0.99875 0.00125
2
 0.9999 0.0001
2
 0.9999 0.0001
2
 0.99992 8e-05
2
 0.99995 5e-05
2
 0.9999 0.0001
2
 0.9991 0.0009
2
 0.9999 0.0001
2
 0.99992 8e-05
2
 0.9999 0.0001
2
 0.9999 0.0001
2
 0.99999 1e-05
2
 0.9999 0.0001
2
 0.9996 0.0004
2
 0.99996 4e-05
2
 0.99995 5e-05
2
 0.9999 0.0001
2
 0.9995 0.0005
2
 0.995 0.005
2
 0.999973 2.7e-05
2
 0.99999 1e-05
2
 0.99995 5e-05
2
 0.99999 1e-05
2
 0.99858 0.00142
2
 0.996 0.004
2
 0.9999 0.0001
2
 0.9999 0.0001
2
 0.9999 0.0001
2
 0.99999 1e-05
2
 0.9999 0.0001
2
 0.9991 0.0009
2
 0.9999 0.0001
2
 0.9999 0.0001
2
 0.9999 0.0001
2
 0.9999 0.0001
2
 0.9995 0.0005
2
 0.99995 5e-05
2
 0.99995 5e-05
2
 0.9999 0.0001
2
 0.99985 0.00015
2
 0.9999 0.0001
2
 0.9996 0.0004
2
 0.99998 2e-05
2
 0.99995 5e-05
2
 0.998 0.002
2
 0.9999 0.0001
2
 0.9998 0.0002
2
 0.99999 1e-05
2
 0.9999 0.0001
2
 0.9999 0.0001
2
 0.9999 0.0001
2
 0.9998 0.0002
2
 0.9995 0.0005
2
 0.999999 1e-06
2
 0.99999 1e-05
2
 0.99999 1e-05
2
 0.9995 0.0005
2
 0.9994 0.0006
2
 0.99922 0.00078
2
 0.9997 0.0003
2
 0.9998 0.0002
2
 0.9999 0.0001
2
 0.99993 7e-05
2
 0.9991 0.0009
2
 0.9998 0.0002
2
 0.99995 5e-05
2
 0.9998 0.0002
2
 1 1e-08
2
 0.99996 4e-05
2
 0.9998 0.0002
2
 0.9994 0.0006
2
 0.99999 1e-05
2
 0.99998 2e-05
2
 0.9999 0.0001
2
 0.9999 0.0001
2
 0.9995 0.0005
2
 0.9999 0.0001
2
 0.9997 0.0003
2
 0.9999 0.0001
2
 0.9999 0.0001
2
 0.99984 0.00016
2
 0.999999 1e-06
2
 0.99993 7e-05
2
 0.9996 0.0004
2
 0.99997 3e-05
2
 0.999 0.001
2
 0.9999 0.0001
2
 0.998 0.002
2
 0.9999 0.0001
2
 0.9999 0.0001
2
 0.99998 2e-05
2
 0.99995 5e-05
2
 0.99996 4e-05
2
 0.9999 0.0001
2
 0.9995 0.0005
2
 0.9999 0.0001
2
 0.9982 0.0018
2
 0.9999 0.0001
2
 0.9997 0.0003
2
 0.9999 0.0001
2
 0.9999 0.0001
2
 0.99985 0.00015
2
 0.99996 4e-05
2
 0.9999 0.0001
2
 0.9999 0.0001
2
 0.9999 0.0001
2
 0.999977 2.291e-05
2
 0.9999 0.0001
2
 0.9999 0.0001
2
 0.998 0.002
2
 0.9991 0.0009
2
 0.99989 0.00011
2
 0.99995 5e-05
2
 0.9999 0.0001
2
 0.9995 0.0005
2
 1 2e-07
2
 0.9999 0.0001
2
 0.995 0.005
2
 0.99975 0.00025
2
 0.9996 0.0004
2
 0.99995 5e-05
2
 0.9985 0.0015
2
 0.9999 0.0001
2
 0.9995 0.0005
2
 0.9999 0.0001
2
 0.99987 0.00013
2
 0.999999 6.2e-07
2
 0.99995 5e-05
2
 0.99999 1e-05
2
 0.99998 2e-05
2
 0.9999 0.0001
2
 0.9999 0.0001
2
 0.9999 0.0001
2
 1 1.2e-07
2
 0.997 0.003
2
 0.999 0.001
2
 0.99996 4e-05
2
 0.9996 0.0004
2
 0.99992 8e-05
2
 0.997 0.003
2
 0.99995 5e-05
2
 0.9999 0.0001
2
 0.99998 2e-05
2
 0.99999 1e-05
2
 0.99999 1e-05
2
 0.9999 0.0001
2
 0.9995 0.0005
2
 0.9999 0.0001
2
 0.9999 0.0001
2
 0.9999 0.0001
2
 0.9998 0.0002
2
 0.999996 4e-06
2
 1 1.6e-07
2
 0.9999 0.0001
2
 0.9994 0.0006
2
 0.9999 0.0001
2
 0.9999 0.0001
2
 0.999907 9.332e-05
2
 0.9999 0.0001
2
 0.999 0.001
2
 0.9994 0.0006
2
 0.99989 0.00011
2
 0.9999 0.0001
2
 0.9999 0.0001
2
 0.999969 3.12e-05
2
 0.9999 0.0001
2
 0.99995 5e-05
2
 0.999992 8e-06
2
 0.99975 0.00025
2
 0.9999 0.0001
2
 0.9999 0.0001
2
 0.99975 0.00025
2
 0.9999 0.0001
2
 0.99882 0.00118
2
 0.996 0.004
2
 0.9999 0.0001
2
 0.99999 1e-05
2
 0.9999 0.0001
2
 0.9999 0.0001
2
 0.999 0.001
2
 0.9999 0.0001
2
 0.9996 0.0004
2
 0.99999 1e-05
2
 0.9998 0.0002
2
 0.9999 0.0001
2
 0.994 0.006
2
 0.9999 0.0001
2
 0.9999 0.0001
2
 0.999 0.001
2
 0.99995 5e-05
2
 0.9999 0.0001
2
 0.9995 0.0005
2
 0.9999 0.0001
2
 0.99991 9e-05
2
 0.99999 1e-05
2
 0.99991 9e-05
2
 0.9999 0.0001
2
 0.9999 0.0001
2
 0.99995 5e-05
2
 0.999999 1e-06
2
 0.99997 3e-05
2
 0.9999 0.0001
2
 1 1e-07
2
 0.99995 5e-05
2
 0.99994 6e-05
2
 0.998 0.002
2
 0.9998 0.0002
2
 0.9999 0.0001
2
 0.9994 0.0006
2
 0.9999 0.0001
2
 0.99997 3e-05
2
 0.99997 3e-05
2
 0.9999 0.0001
2
 0.9999 0.0001
2
 0.9997 0.0003
2
 0.99998 2e-05
2
 0.99989 0.00011
2
 0.9995 0.0005
2
 0.9999 0.0001
2
 0.9999 0.0001
2
 0.9999 0.0001
2
 0.9999 0.0001
2
 0.99995 5e-05
2
 0.9999 0.0001
2
 0.9999 0.0001
2
 0.9994 0.0006
2
 0.99997 3e-05
2
 0.9999 0.0001
2
 0.9999 0.0001
2
 0.99999 1e-05
2
 0.9999 0.0001
2
 0.9999 0.0001
2
 0.9999 0.0001
2
 0.99996 4e-05
2
 0.9995 0.0005
2
 0.9999 0.0001
2
 0.9999 0.0001
2
 0.9995 0.0005
2
 0.999999 1e-06
2
 0.9998 0.0002
2
 0.9994 0.0006
2
 0.99999 1e-05
2
 0.99997 3e-05
2
 0.99998 2e-05
2
 0.9999 0.0001
2
 0.9996 0.0004
2
 0.99993 7e-05
1
 1

